unsat
(forall ((A (_ BitVec 20))
         (B (_ BitVec 20))
         (C (_ BitVec 20))
         (D (_ BitVec 20))
         (E (_ BitVec 20))
         (F (_ BitVec 20))
         (G (_ BitVec 20))
         (H (_ BitVec 20))
         (I (_ BitVec 20))
         (J (_ BitVec 20))
         (K (_ BitVec 20))
         (L (_ BitVec 20))
         (M (_ BitVec 17))
         (N (_ BitVec 17))
         (O (_ BitVec 17))
         (P (_ BitVec 1))
         (Q (_ BitVec 18))
         (R (_ BitVec 20))
         (S (_ BitVec 20))
         (T (_ BitVec 20))
         (U (_ BitVec 1))
         (V (_ BitVec 20))
         (W (_ BitVec 20))
         (X (_ BitVec 20))
         (Y (_ BitVec 20))
         (Z (_ BitVec 20))
         (A1 (_ BitVec 18))
         (B1 (_ BitVec 20))
         (C1 (_ BitVec 20))
         (D1 (_ BitVec 20))
         (E1 (_ BitVec 20))
         (F1 (_ BitVec 38))
         (G1 (_ BitVec 20))
         (H1 (_ BitVec 17))
         (I1 (_ BitVec 1))
         (J1 (_ BitVec 20))
         (K1 (_ BitVec 20))
         (L1 (_ BitVec 20))
         (M1 (_ BitVec 22))
         (N1 (_ BitVec 20))
         (O1 (_ BitVec 20))
         (P1 (_ BitVec 20))
         (Q1 (_ BitVec 1))
         (R1 (_ BitVec 38))
         (S1 (_ BitVec 1))
         (T1 (_ BitVec 20))
         (U1 (_ BitVec 20))
         (V1 (_ BitVec 1))
         (W1 (_ BitVec 1))
         (X1 (_ BitVec 1))
         (Y1 (_ BitVec 20))
         (Z1 (_ BitVec 20))
         (A2 (_ BitVec 20))
         (B2 (_ BitVec 20))
         (C2 (_ BitVec 18))
         (D2 (_ BitVec 20))
         (E2 (_ BitVec 20))
         (F2 (_ BitVec 22))
         (G2 (_ BitVec 20))
         (H2 (_ BitVec 20))
         (I2 (_ BitVec 20))
         (J2 (_ BitVec 20))
         (K2 (_ BitVec 20))
         (L2 (_ BitVec 38))
         (M2 (_ BitVec 1))
         (N2 (_ BitVec 14))
         (O2 (_ BitVec 1))
         (P2 (_ BitVec 38))
         (Q2 (_ BitVec 20))
         (R2 (_ BitVec 16))
         (S2 (_ BitVec 14))
         (T2 (_ BitVec 22))
         (U2 (_ BitVec 14))
         (V2 (_ BitVec 22))
         (W2 (_ BitVec 38))
         (X2 (_ BitVec 30))
         (Y2 (_ BitVec 30))
         (Z2 (_ BitVec 20))
         (A3 (_ BitVec 20))
         (B3 (_ BitVec 20))
         (C3 (_ BitVec 20))
         (D3 (_ BitVec 20))
         (E3 (_ BitVec 20))
         (F3 (_ BitVec 20))
         (G3 (_ BitVec 16))
         (H3 (_ BitVec 30))
         (I3 (_ BitVec 1))
         (J3 (_ BitVec 38))
         (K3 (_ BitVec 30)))
  (! (let ((a!1 (= ((_ extract 15 2)
                     (bvadd (concat #x000 T2) ((_ extract 37 4) R1)))
                   ((_ extract 19 6) L1)))
           (a!2 ((_ extract 17 4)
                  (bvadd (concat #b000 ((_ extract 21 2) F2)) (concat #b0 M1))))
           (a!3 (= ((_ extract 31 14)
                     (bvadd (concat #b0000000000 V2) ((_ extract 37 6) L2)))
                   #b000000000000000000))
           (a!4 (= ((_ extract 33 16)
                     (bvadd (concat #x000 T2) ((_ extract 37 4) R1)))
                   #b000000000000000000))
           (a!5 ((_ extract 22 18)
                  (bvadd (concat #b000 ((_ extract 21 2) F2)) (concat #b0 M1))))
           (a!6 ((_ extract 3 2)
                  (bvadd (concat #b000 ((_ extract 21 2) F2)) (concat #b0 M1))))
           (a!8 (= (concat (bvadd ((_ extract 5 4) R1) ((_ extract 1 0) T2))
                           ((_ extract 3 0) R1))
                   ((_ extract 5 0) L1))))
     (let ((a!7 (= ((_ extract 5 0) G1)
                   (concat a!6
                           (bvadd ((_ extract 1 0) M1) ((_ extract 3 2) F2))
                           ((_ extract 1 0) F2)))))
     (let ((a!9 (and (or (not ((_ bit2bool 0) X1)) (not (= P #b0)))
                     (not ((_ bit2bool 3) S2))
                     (not ((_ bit2bool 2) S2))
                     (not ((_ bit2bool 1) S2))
                     (not ((_ bit2bool 0) S2))
                     (or ((_ bit2bool 0) Y)
                         ((_ bit2bool 0) B2)
                         (not ((_ bit2bool 0) S)))
                     (= (bvadd ((_ extract 13 0) V2) ((_ extract 19 6) L2))
                        ((_ extract 19 6) L))
                     a!1
                     (= ((_ extract 19 6) G1) a!2)
                     (not ((_ bit2bool 1) U2))
                     a!3
                     (not ((_ bit2bool 0) U2))
                     a!4
                     (= a!5 #b00000)
                     (or (= ((_ extract 5 0) G1) ((_ extract 5 0) F2))
                         (not (= O #b00000000000000001)))
                     (or (not (= O #b00000000000000001)) a!7)
                     (or (not (= H1 #b00000000000000001)) a!8)
                     (or (= ((_ extract 5 0) L2) ((_ extract 5 0) L))
                         (not (= N #b00000000000000001)))
                     (or (not (= M #b00000000000000001))
                         (= F1 (concat #b000000000000000000 A3))))))
       (= (INV!slice!1 A
                       B
                       C
                       D
                       E
                       F
                       G
                       H
                       I
                       J
                       K
                       L
                       M
                       N
                       O
                       P
                       Q
                       R
                       S
                       T
                       U
                       V
                       W
                       X
                       Y
                       Z
                       A1
                       B1
                       C1
                       D1
                       E1
                       F1
                       G1
                       H1
                       I1
                       J1
                       K1
                       L1
                       M1
                       N1
                       O1
                       P1
                       Q1
                       R1
                       S1
                       T1
                       U1
                       V1
                       W1
                       X1
                       Y1
                       Z1
                       A2
                       B2
                       C2
                       D2
                       E2
                       F2
                       G2
                       H2
                       I2
                       J2
                       K2
                       L2
                       M2
                       N2
                       O2
                       P2
                       Q2
                       R2
                       S2
                       T2
                       U2
                       V2
                       W2
                       X2
                       Y2
                       Z2
                       A3
                       B3
                       C3
                       D3
                       E3
                       F3
                       G3
                       H3
                       I3
                       J3
                       K3)
          a!9))))
     :weight 0))
